\Problem name: compact

Minimize
OBJROW: C
Subject To
ord(0,1):  - x(0,0) + x(0,2) >= 2
ord(0,2):  x(0,1) - x(0,2) >= 4
ord(1,1):  x(1,0) - x(1,2) >= 10
ord(1,2):  - x(1,0) + x(1,1) >= 3
ord(2,1):  x(2,0) - x(2,2) >= 5
ord(2,2):  - x(2,0) + x(2,1) >= 4
ord(3,1):  - x(3,1) + x(3,2) >= 7
ord(3,2):  x(3,0) - x(3,2) >= 1
triangle2(0,1,0):  y(0,1,0) + y(1,0,0) = 1
triangle2(0,1,1):  y(0,1,1) + y(1,0,1) = 1
triangle2(0,1,2):  y(0,1,2) + y(1,0,2) = 1
triangle2(0,2,0):  y(0,2,0) + y(2,0,0) = 1
triangle2(0,2,1):  y(0,2,1) + y(2,0,1) = 1
triangle2(0,2,2):  y(0,2,2) + y(2,0,2) = 1
triangle2(0,3,0):  y(0,3,0) + y(3,0,0) = 1
triangle2(0,3,1):  y(0,3,1) + y(3,0,1) = 1
triangle2(0,3,2):  y(0,3,2) + y(3,0,2) = 1
triangle2(1,2,0):  y(1,2,0) + y(2,1,0) = 1
triangle2(1,2,1):  y(1,2,1) + y(2,1,1) = 1
triangle2(1,2,2):  y(1,2,2) + y(2,1,2) = 1
triangle2(1,3,0):  y(1,3,0) + y(3,1,0) = 1
triangle2(1,3,1):  y(1,3,1) + y(3,1,1) = 1
triangle2(1,3,2):  y(1,3,2) + y(3,1,2) = 1
triangle2(2,3,0):  y(2,3,0) + y(3,2,0) = 1
triangle2(2,3,1):  y(2,3,1) + y(3,2,1) = 1
triangle2(2,3,2):  y(2,3,2) + y(3,2,2) = 1
MCLinV(0,1,0):  x(0,0) - v(0,1,0) - x(1,0) = 3
MCLinV(1,0,0):  - x(0,0) - v(1,0,0) + x(1,0) = 2
MCLin1(0,1,0):  u(0,1,0) >= -0
MCLin2(0,1,0):  -50 y(1,0,0) - u(0,1,0) <= -0
MCLin3(0,1,0):  37 y(1,0,0) + v(0,1,0) - u(0,1,0) <= 37
MCLin4(0,1,0):  37 y(1,0,0) - u(0,1,0) >= -0
MCLin5(0,1,0):  -50 y(1,0,0) + v(0,1,0) - u(0,1,0) >= -50
MCLin6(1,0,0):  u(1,0,0) >= -0
MCLin7(1,0,0):  -42 y(0,1,0) - u(1,0,0) <= -0
MCLin8(1,0,0):  45 y(0,1,0) + v(1,0,0) - u(1,0,0) <= 45
MCLin9(1,0,0):  45 y(0,1,0) - u(1,0,0) >= -0
MCLin10(1,0,0):  -42 y(0,1,0) + v(1,0,0) - u(1,0,0) >= -42
MCLinV(0,1,1):  x(0,1) - v(0,1,1) - x(1,1) = 9
MCLinV(1,0,1):  - x(0,1) - v(1,0,1) + x(1,1) = 3
MCLin1(0,1,1):  u(0,1,1) >= -0
MCLin2(0,1,1):  -53 y(1,0,1) - u(0,1,1) <= -0
MCLin3(0,1,1):  34 y(1,0,1) + v(0,1,1) - u(0,1,1) <= 34
MCLin4(0,1,1):  34 y(1,0,1) - u(0,1,1) >= -0
MCLin5(0,1,1):  -53 y(1,0,1) + v(0,1,1) - u(0,1,1) >= -53
MCLin6(1,0,1):  u(1,0,1) >= -0
MCLin7(1,0,1):  -46 y(0,1,1) - u(1,0,1) <= -0
MCLin8(1,0,1):  41 y(0,1,1) + v(1,0,1) - u(1,0,1) <= 41
MCLin9(1,0,1):  41 y(0,1,1) - u(1,0,1) >= -0
MCLin10(1,0,1):  -46 y(0,1,1) + v(1,0,1) - u(1,0,1) >= -46
MCLinV(0,1,2):  x(0,2) - v(0,1,2) - x(1,2) = 10
MCLinV(1,0,2):  - x(0,2) - v(1,0,2) + x(1,2) = 4
MCLin1(0,1,2):  u(0,1,2) >= -0
MCLin2(0,1,2):  -45 y(1,0,2) - u(0,1,2) <= -0
MCLin3(0,1,2):  42 y(1,0,2) + v(0,1,2) - u(0,1,2) <= 42
MCLin4(0,1,2):  42 y(1,0,2) - u(0,1,2) >= -0
MCLin5(0,1,2):  -45 y(1,0,2) + v(0,1,2) - u(0,1,2) >= -45
MCLin6(1,0,2):  u(1,0,2) >= -0
MCLin7(1,0,2):  -56 y(0,1,2) - u(1,0,2) <= -0
MCLin8(1,0,2):  31 y(0,1,2) + v(1,0,2) - u(1,0,2) <= 31
MCLin9(1,0,2):  31 y(0,1,2) - u(1,0,2) >= -0
MCLin10(1,0,2):  -56 y(0,1,2) + v(1,0,2) - u(1,0,2) >= -56
MCLinV(0,2,0):  x(0,0) - v(0,2,0) - x(2,0) = 4
MCLinV(2,0,0):  - x(0,0) - v(2,0,0) + x(2,0) = 2
MCLin1(0,2,0):  u(0,2,0) >= -0
MCLin2(0,2,0):  -49 y(2,0,0) - u(0,2,0) <= -0
MCLin3(0,2,0):  41 y(2,0,0) + v(0,2,0) - u(0,2,0) <= 41
MCLin4(0,2,0):  41 y(2,0,0) - u(0,2,0) >= -0
MCLin5(0,2,0):  -49 y(2,0,0) + v(0,2,0) - u(0,2,0) >= -49
MCLin6(2,0,0):  u(2,0,0) >= -0
MCLin7(2,0,0):  -47 y(0,2,0) - u(2,0,0) <= -0
MCLin8(2,0,0):  43 y(0,2,0) + v(2,0,0) - u(2,0,0) <= 43
MCLin9(2,0,0):  43 y(0,2,0) - u(2,0,0) >= -0
MCLin10(2,0,0):  -47 y(0,2,0) + v(2,0,0) - u(2,0,0) >= -47
MCLinV(0,2,1):  x(0,1) - v(0,2,1) - x(2,1) = 10
MCLinV(2,0,1):  - x(0,1) - v(2,0,1) + x(2,1) = 3
MCLin1(0,2,1):  u(0,2,1) >= -0
MCLin2(0,2,1):  -53 y(2,0,1) - u(0,2,1) <= -0
MCLin3(0,2,1):  37 y(2,0,1) + v(0,2,1) - u(0,2,1) <= 37
MCLin4(0,2,1):  37 y(2,0,1) - u(0,2,1) >= -0
MCLin5(0,2,1):  -53 y(2,0,1) + v(0,2,1) - u(0,2,1) >= -53
MCLin6(2,0,1):  u(2,0,1) >= -0
MCLin7(2,0,1):  -50 y(0,2,1) - u(2,0,1) <= -0
MCLin8(2,0,1):  40 y(0,2,1) + v(2,0,1) - u(2,0,1) <= 40
MCLin9(2,0,1):  40 y(0,2,1) - u(2,0,1) >= -0
MCLin10(2,0,1):  -50 y(0,2,1) + v(2,0,1) - u(2,0,1) >= -50
MCLinV(0,2,2):  x(0,2) - v(0,2,2) - x(2,2) = 5
MCLinV(2,0,2):  - x(0,2) - v(2,0,2) + x(2,2) = 4
MCLin1(0,2,2):  u(0,2,2) >= -0
MCLin2(0,2,2):  -43 y(2,0,2) - u(0,2,2) <= -0
MCLin3(0,2,2):  47 y(2,0,2) + v(0,2,2) - u(0,2,2) <= 47
MCLin4(0,2,2):  47 y(2,0,2) - u(0,2,2) >= -0
MCLin5(0,2,2):  -43 y(2,0,2) + v(0,2,2) - u(0,2,2) >= -43
MCLin6(2,0,2):  u(2,0,2) >= -0
MCLin7(2,0,2):  -56 y(0,2,2) - u(2,0,2) <= -0
MCLin8(2,0,2):  34 y(0,2,2) + v(2,0,2) - u(2,0,2) <= 34
MCLin9(2,0,2):  34 y(0,2,2) - u(2,0,2) >= -0
MCLin10(2,0,2):  -56 y(0,2,2) + v(2,0,2) - u(2,0,2) >= -56
MCLinV(0,3,0):  x(0,0) - v(0,3,0) - x(3,0) = 1
MCLinV(3,0,0):  - x(0,0) - v(3,0,0) + x(3,0) = 2
MCLin1(0,3,0):  u(0,3,0) >= -0
MCLin2(0,3,0):  -59 y(3,0,0) - u(0,3,0) <= -0
MCLin3(0,3,0):  41 y(3,0,0) + v(0,3,0) - u(0,3,0) <= 41
MCLin4(0,3,0):  41 y(3,0,0) - u(0,3,0) >= -0
MCLin5(0,3,0):  -59 y(3,0,0) + v(0,3,0) - u(0,3,0) >= -59
MCLin6(3,0,0):  u(3,0,0) >= -0
MCLin7(3,0,0):  -44 y(0,3,0) - u(3,0,0) <= -0
MCLin8(3,0,0):  56 y(0,3,0) + v(3,0,0) - u(3,0,0) <= 56
MCLin9(3,0,0):  56 y(0,3,0) - u(3,0,0) >= -0
MCLin10(3,0,0):  -44 y(0,3,0) + v(3,0,0) - u(3,0,0) >= -44
MCLinV(0,3,1):  x(0,1) - v(0,3,1) - x(3,1) = 7
MCLinV(3,0,1):  - x(0,1) - v(3,0,1) + x(3,1) = 3
MCLin1(0,3,1):  u(0,3,1) >= -0
MCLin2(0,3,1):  -51 y(3,0,1) - u(0,3,1) <= -0
MCLin3(0,3,1):  49 y(3,0,1) + v(0,3,1) - u(0,3,1) <= 49
MCLin4(0,3,1):  49 y(3,0,1) - u(0,3,1) >= -0
MCLin5(0,3,1):  -51 y(3,0,1) + v(0,3,1) - u(0,3,1) >= -51
MCLin6(3,0,1):  u(3,0,1) >= -0
MCLin7(3,0,1):  -59 y(0,3,1) - u(3,0,1) <= -0
MCLin8(3,0,1):  41 y(0,3,1) + v(3,0,1) - u(3,0,1) <= 41
MCLin9(3,0,1):  41 y(0,3,1) - u(3,0,1) >= -0
MCLin10(3,0,1):  -59 y(0,3,1) + v(3,0,1) - u(3,0,1) >= -59
MCLinV(0,3,2):  x(0,2) - v(0,3,2) - x(3,2) = 1
MCLinV(3,0,2):  - x(0,2) - v(3,0,2) + x(3,2) = 4
MCLin1(0,3,2):  u(0,3,2) >= -0
MCLin2(0,3,2):  -56 y(3,0,2) - u(0,3,2) <= -0
MCLin3(0,3,2):  44 y(3,0,2) + v(0,3,2) - u(0,3,2) <= 44
MCLin4(0,3,2):  44 y(3,0,2) - u(0,3,2) >= -0
MCLin5(0,3,2):  -56 y(3,0,2) + v(0,3,2) - u(0,3,2) >= -56
MCLin6(3,0,2):  u(3,0,2) >= -0
MCLin7(3,0,2):  -49 y(0,3,2) - u(3,0,2) <= -0
MCLin8(3,0,2):  51 y(0,3,2) + v(3,0,2) - u(3,0,2) <= 51
MCLin9(3,0,2):  51 y(0,3,2) - u(3,0,2) >= -0
MCLin10(3,0,2):  -49 y(0,3,2) + v(3,0,2) - u(3,0,2) >= -49
MCLinV(1,2,0):  x(1,0) - v(1,2,0) - x(2,0) = 4
MCLinV(2,1,0):  - x(1,0) - v(2,1,0) + x(2,0) = 3
MCLin1(1,2,0):  u(1,2,0) >= -0
MCLin2(1,2,0):  -39 y(2,1,0) - u(1,2,0) <= -0
MCLin3(1,2,0):  38 y(2,1,0) + v(1,2,0) - u(1,2,0) <= 38
MCLin4(1,2,0):  38 y(2,1,0) - u(1,2,0) >= -0
MCLin5(1,2,0):  -39 y(2,1,0) + v(1,2,0) - u(1,2,0) >= -39
MCLin6(2,1,0):  u(2,1,0) >= -0
MCLin7(2,1,0):  -45 y(1,2,0) - u(2,1,0) <= -0
MCLin8(2,1,0):  32 y(1,2,0) + v(2,1,0) - u(2,1,0) <= 32
MCLin9(2,1,0):  32 y(1,2,0) - u(2,1,0) >= -0
MCLin10(2,1,0):  -45 y(1,2,0) + v(2,1,0) - u(2,1,0) >= -45
MCLinV(1,2,1):  x(1,1) - v(1,2,1) - x(2,1) = 10
MCLinV(2,1,1):  - x(1,1) - v(2,1,1) + x(2,1) = 9
MCLin1(1,2,1):  u(1,2,1) >= -0
MCLin2(1,2,1):  -46 y(2,1,1) - u(1,2,1) <= -0
MCLin3(1,2,1):  31 y(2,1,1) + v(1,2,1) - u(1,2,1) <= 31
MCLin4(1,2,1):  31 y(2,1,1) - u(1,2,1) >= -0
MCLin5(1,2,1):  -46 y(2,1,1) + v(1,2,1) - u(1,2,1) >= -46
MCLin6(2,1,1):  u(2,1,1) >= -0
MCLin7(2,1,1):  -50 y(1,2,1) - u(2,1,1) <= -0
MCLin8(2,1,1):  27 y(1,2,1) + v(2,1,1) - u(2,1,1) <= 27
MCLin9(2,1,1):  27 y(1,2,1) - u(2,1,1) >= -0
MCLin10(2,1,1):  -50 y(1,2,1) + v(2,1,1) - u(2,1,1) >= -50
MCLinV(1,2,2):  x(1,2) - v(1,2,2) - x(2,2) = 5
MCLinV(2,1,2):  - x(1,2) - v(2,1,2) + x(2,2) = 10
MCLin1(1,2,2):  u(1,2,2) >= -0
MCLin2(1,2,2):  -45 y(2,1,2) - u(1,2,2) <= -0
MCLin3(1,2,2):  32 y(2,1,2) + v(1,2,2) - u(1,2,2) <= 32
MCLin4(1,2,2):  32 y(2,1,2) - u(1,2,2) >= -0
MCLin5(1,2,2):  -45 y(2,1,2) + v(1,2,2) - u(1,2,2) >= -45
MCLin6(2,1,2):  u(2,1,2) >= -0
MCLin7(2,1,2):  -47 y(1,2,2) - u(2,1,2) <= -0
MCLin8(2,1,2):  30 y(1,2,2) + v(2,1,2) - u(2,1,2) <= 30
MCLin9(2,1,2):  30 y(1,2,2) - u(2,1,2) >= -0
MCLin10(2,1,2):  -47 y(1,2,2) + v(2,1,2) - u(2,1,2) >= -47
MCLinV(1,3,0):  x(1,0) - v(1,3,0) - x(3,0) = 1
MCLinV(3,1,0):  - x(1,0) - v(3,1,0) + x(3,0) = 3
MCLin1(1,3,0):  u(1,3,0) >= -0
MCLin2(1,3,0):  -49 y(3,1,0) - u(1,3,0) <= -0
MCLin3(1,3,0):  38 y(3,1,0) + v(1,3,0) - u(1,3,0) <= 38
MCLin4(1,3,0):  38 y(3,1,0) - u(1,3,0) >= -0
MCLin5(1,3,0):  -49 y(3,1,0) + v(1,3,0) - u(1,3,0) >= -49
MCLin6(3,1,0):  u(3,1,0) >= -0
MCLin7(3,1,0):  -42 y(1,3,0) - u(3,1,0) <= -0
MCLin8(3,1,0):  45 y(1,3,0) + v(3,1,0) - u(3,1,0) <= 45
MCLin9(3,1,0):  45 y(1,3,0) - u(3,1,0) >= -0
MCLin10(3,1,0):  -42 y(1,3,0) + v(3,1,0) - u(3,1,0) >= -42
MCLinV(1,3,1):  x(1,1) - v(1,3,1) - x(3,1) = 7
MCLinV(3,1,1):  - x(1,1) - v(3,1,1) + x(3,1) = 9
MCLin1(1,3,1):  u(1,3,1) >= -0
MCLin2(1,3,1):  -44 y(3,1,1) - u(1,3,1) <= -0
MCLin3(1,3,1):  43 y(3,1,1) + v(1,3,1) - u(1,3,1) <= 43
MCLin4(1,3,1):  43 y(3,1,1) - u(1,3,1) >= -0
MCLin5(1,3,1):  -44 y(3,1,1) + v(1,3,1) - u(1,3,1) >= -44
MCLin6(3,1,1):  u(3,1,1) >= -0
MCLin7(3,1,1):  -59 y(1,3,1) - u(3,1,1) <= -0
MCLin8(3,1,1):  28 y(1,3,1) + v(3,1,1) - u(3,1,1) <= 28
MCLin9(3,1,1):  28 y(1,3,1) - u(3,1,1) >= -0
MCLin10(3,1,1):  -59 y(1,3,1) + v(3,1,1) - u(3,1,1) >= -59
MCLinV(1,3,2):  x(1,2) - v(1,3,2) - x(3,2) = 1
MCLinV(3,1,2):  - x(1,2) - v(3,1,2) + x(3,2) = 10
MCLin1(1,3,2):  u(1,3,2) >= -0
MCLin2(1,3,2):  -58 y(3,1,2) - u(1,3,2) <= -0
MCLin3(1,3,2):  29 y(3,1,2) + v(1,3,2) - u(1,3,2) <= 29
MCLin4(1,3,2):  29 y(3,1,2) - u(1,3,2) >= -0
MCLin5(1,3,2):  -58 y(3,1,2) + v(1,3,2) - u(1,3,2) >= -58
MCLin6(3,1,2):  u(3,1,2) >= -0
MCLin7(3,1,2):  -40 y(1,3,2) - u(3,1,2) <= -0
MCLin8(3,1,2):  47 y(1,3,2) + v(3,1,2) - u(3,1,2) <= 47
MCLin9(3,1,2):  47 y(1,3,2) - u(3,1,2) >= -0
MCLin10(3,1,2):  -40 y(1,3,2) + v(3,1,2) - u(3,1,2) >= -40
MCLinV(2,3,0):  x(2,0) - v(2,3,0) - x(3,0) = 1
MCLinV(3,2,0):  - x(2,0) - v(3,2,0) + x(3,0) = 4
MCLin1(2,3,0):  u(2,3,0) >= -0
MCLin2(2,3,0):  -54 y(3,2,0) - u(2,3,0) <= -0
MCLin3(2,3,0):  36 y(3,2,0) + v(2,3,0) - u(2,3,0) <= 36
MCLin4(2,3,0):  36 y(3,2,0) - u(2,3,0) >= -0
MCLin5(2,3,0):  -54 y(3,2,0) + v(2,3,0) - u(2,3,0) >= -54
MCLin6(3,2,0):  u(3,2,0) >= -0
MCLin7(3,2,0):  -41 y(2,3,0) - u(3,2,0) <= -0
MCLin8(3,2,0):  49 y(2,3,0) + v(3,2,0) - u(3,2,0) <= 49
MCLin9(3,2,0):  49 y(2,3,0) - u(3,2,0) >= -0
MCLin10(3,2,0):  -41 y(2,3,0) + v(3,2,0) - u(3,2,0) >= -41
MCLinV(2,3,1):  x(2,1) - v(2,3,1) - x(3,1) = 7
MCLinV(3,2,1):  - x(2,1) - v(3,2,1) + x(3,1) = 10
MCLin1(2,3,1):  u(2,3,1) >= -0
MCLin2(2,3,1):  -48 y(3,2,1) - u(2,3,1) <= -0
MCLin3(2,3,1):  42 y(3,2,1) + v(2,3,1) - u(2,3,1) <= 42
MCLin4(2,3,1):  42 y(3,2,1) - u(2,3,1) >= -0
MCLin5(2,3,1):  -48 y(3,2,1) + v(2,3,1) - u(2,3,1) >= -48
MCLin6(3,2,1):  u(3,2,1) >= -0
MCLin7(3,2,1):  -59 y(2,3,1) - u(3,2,1) <= -0
MCLin8(3,2,1):  31 y(2,3,1) + v(3,2,1) - u(3,2,1) <= 31
MCLin9(3,2,1):  31 y(2,3,1) - u(3,2,1) >= -0
MCLin10(3,2,1):  -59 y(2,3,1) + v(3,2,1) - u(3,2,1) >= -59
MCLinV(2,3,2):  x(2,2) - v(2,3,2) - x(3,2) = 1
MCLinV(3,2,2):  - x(2,2) - v(3,2,2) + x(3,2) = 5
MCLin1(2,3,2):  u(2,3,2) >= -0
MCLin2(2,3,2):  -58 y(3,2,2) - u(2,3,2) <= -0
MCLin3(2,3,2):  32 y(3,2,2) + v(2,3,2) - u(2,3,2) <= 32
MCLin4(2,3,2):  32 y(3,2,2) - u(2,3,2) >= -0
MCLin5(2,3,2):  -58 y(3,2,2) + v(2,3,2) - u(2,3,2) >= -58
MCLin6(3,2,2):  u(3,2,2) >= -0
MCLin7(3,2,2):  -38 y(2,3,2) - u(3,2,2) <= -0
MCLin8(3,2,2):  52 y(2,3,2) + v(3,2,2) - u(3,2,2) <= 52
MCLin9(3,2,2):  52 y(2,3,2) - u(3,2,2) >= -0
MCLin10(3,2,2):  -38 y(2,3,2) + v(3,2,2) - u(3,2,2) >= -38
makespan(0):  C - x(0,1) >= 3
makespan(1):  C - x(1,1) >= 9
makespan(2):  C - x(2,1) >= 10
makespan(3):  C - x(3,0) >= 1
Bounds
 0 <= C <= 59
 0 <= x(0,0) <= 50
 0 <= y(0,1,0) <= 1
 0 <= y(1,0,0) <= 1
 -50 <= v(0,1,0) <= 37
 -42 <= v(1,0,0) <= 45
 -590 <= u(0,1,0)
 -590 <= u(1,0,0)
 0 <= y(0,2,0) <= 1
 0 <= y(2,0,0) <= 1
 -49 <= v(0,2,0) <= 41
 -47 <= v(2,0,0) <= 43
 -590 <= u(0,2,0)
 -590 <= u(2,0,0)
 0 <= y(0,3,0) <= 1
 0 <= y(3,0,0) <= 1
 -59 <= v(0,3,0) <= 41
 -44 <= v(3,0,0) <= 56
 -590 <= u(0,3,0)
 -590 <= u(3,0,0)
 10 <= x(1,0) <= 47
 0 <= y(1,2,0) <= 1
 0 <= y(2,1,0) <= 1
 -39 <= v(1,2,0) <= 38
 -45 <= v(2,1,0) <= 32
 -590 <= u(1,2,0)
 -590 <= u(2,1,0)
 0 <= y(1,3,0) <= 1
 0 <= y(3,1,0) <= 1
 -49 <= v(1,3,0) <= 38
 -42 <= v(3,1,0) <= 45
 -590 <= u(1,3,0)
 -590 <= u(3,1,0)
 5 <= x(2,0) <= 45
 0 <= y(2,3,0) <= 1
 0 <= y(3,2,0) <= 1
 -54 <= v(2,3,0) <= 36
 -41 <= v(3,2,0) <= 49
 -590 <= u(2,3,0)
 -590 <= u(3,2,0)
 8 <= x(3,0) <= 58
 6 <= x(0,1) <= 56
 0 <= y(0,1,1) <= 1
 0 <= y(1,0,1) <= 1
 -53 <= v(0,1,1) <= 34
 -46 <= v(1,0,1) <= 41
 -590 <= u(0,1,1)
 -590 <= u(1,0,1)
 0 <= y(0,2,1) <= 1
 0 <= y(2,0,1) <= 1
 -53 <= v(0,2,1) <= 37
 -50 <= v(2,0,1) <= 40
 -590 <= u(0,2,1)
 -590 <= u(2,0,1)
 0 <= y(0,3,1) <= 1
 0 <= y(3,0,1) <= 1
 -51 <= v(0,3,1) <= 49
 -59 <= v(3,0,1) <= 41
 -590 <= u(0,3,1)
 -590 <= u(3,0,1)
 13 <= x(1,1) <= 50
 0 <= y(1,2,1) <= 1
 0 <= y(2,1,1) <= 1
 -46 <= v(1,2,1) <= 31
 -50 <= v(2,1,1) <= 27
 -590 <= u(1,2,1)
 -590 <= u(2,1,1)
 0 <= y(1,3,1) <= 1
 0 <= y(3,1,1) <= 1
 -44 <= v(1,3,1) <= 43
 -59 <= v(3,1,1) <= 28
 -590 <= u(1,3,1)
 -590 <= u(3,1,1)
 9 <= x(2,1) <= 49
 0 <= y(2,3,1) <= 1
 0 <= y(3,2,1) <= 1
 -48 <= v(2,3,1) <= 42
 -59 <= v(3,2,1) <= 31
 -590 <= u(2,3,1)
 -590 <= u(3,2,1)
 0 <= x(3,1) <= 50
 2 <= x(0,2) <= 52
 0 <= y(0,1,2) <= 1
 0 <= y(1,0,2) <= 1
 -45 <= v(0,1,2) <= 42
 -56 <= v(1,0,2) <= 31
 -590 <= u(0,1,2)
 -590 <= u(1,0,2)
 0 <= y(0,2,2) <= 1
 0 <= y(2,0,2) <= 1
 -43 <= v(0,2,2) <= 47
 -56 <= v(2,0,2) <= 34
 -590 <= u(0,2,2)
 -590 <= u(2,0,2)
 0 <= y(0,3,2) <= 1
 0 <= y(3,0,2) <= 1
 -56 <= v(0,3,2) <= 44
 -49 <= v(3,0,2) <= 51
 -590 <= u(0,3,2)
 -590 <= u(3,0,2)
 0 <= x(1,2) <= 37
 0 <= y(1,2,2) <= 1
 0 <= y(2,1,2) <= 1
 -45 <= v(1,2,2) <= 32
 -47 <= v(2,1,2) <= 30
 -590 <= u(1,2,2)
 -590 <= u(2,1,2)
 0 <= y(1,3,2) <= 1
 0 <= y(3,1,2) <= 1
 -58 <= v(1,3,2) <= 29
 -40 <= v(3,1,2) <= 47
 -590 <= u(1,3,2)
 -590 <= u(3,1,2)
 0 <= x(2,2) <= 40
 0 <= y(2,3,2) <= 1
 0 <= y(3,2,2) <= 1
 -58 <= v(2,3,2) <= 32
 -38 <= v(3,2,2) <= 52
 -590 <= u(2,3,2)
 -590 <= u(3,2,2)
 7 <= x(3,2) <= 57
Integers
C x(0,0) y(0,1,0) y(1,0,0) v(0,1,0) v(1,0,0) u(0,1,0) u(1,0,0) y(0,2,0) y(2,0,0) 
v(0,2,0) v(2,0,0) u(0,2,0) u(2,0,0) y(0,3,0) y(3,0,0) v(0,3,0) v(3,0,0) u(0,3,0) u(3,0,0) 
x(1,0) y(1,2,0) y(2,1,0) v(1,2,0) v(2,1,0) u(1,2,0) u(2,1,0) y(1,3,0) y(3,1,0) v(1,3,0) 
v(3,1,0) u(1,3,0) u(3,1,0) x(2,0) y(2,3,0) y(3,2,0) v(2,3,0) v(3,2,0) u(2,3,0) u(3,2,0) 
x(3,0) x(0,1) y(0,1,1) y(1,0,1) v(0,1,1) v(1,0,1) u(0,1,1) u(1,0,1) y(0,2,1) y(2,0,1) 
v(0,2,1) v(2,0,1) u(0,2,1) u(2,0,1) y(0,3,1) y(3,0,1) v(0,3,1) v(3,0,1) u(0,3,1) u(3,0,1) 
x(1,1) y(1,2,1) y(2,1,1) v(1,2,1) v(2,1,1) u(1,2,1) u(2,1,1) y(1,3,1) y(3,1,1) v(1,3,1) 
v(3,1,1) u(1,3,1) u(3,1,1) x(2,1) y(2,3,1) y(3,2,1) v(2,3,1) v(3,2,1) u(2,3,1) u(3,2,1) 
x(3,1) x(0,2) y(0,1,2) y(1,0,2) v(0,1,2) v(1,0,2) u(0,1,2) u(1,0,2) y(0,2,2) y(2,0,2) 
v(0,2,2) v(2,0,2) u(0,2,2) u(2,0,2) y(0,3,2) y(3,0,2) v(0,3,2) v(3,0,2) u(0,3,2) u(3,0,2) 
x(1,2) y(1,2,2) y(2,1,2) v(1,2,2) v(2,1,2) u(1,2,2) u(2,1,2) y(1,3,2) y(3,1,2) v(1,3,2) 
v(3,1,2) u(1,3,2) u(3,1,2) x(2,2) y(2,3,2) y(3,2,2) v(2,3,2) v(3,2,2) u(2,3,2) u(3,2,2) 
x(3,2) 
End
